TASK = {FUNDS, SOLDIERS, DEFENSE, WEAPONRY_ART, ELITEARMY, 
   RAW_MATERIALS, CRAFTSMEN, CASTING, BRICKS, WALL};

duration = [10,10,25,25,10,20,15,20,10,20];
due =      [20,25,65,70,100,40,50,50,50,100]; 

precedences = 
  [ (FUNDS, SOLDIERS)
   , (FUNDS, RAW_MATERIALS)
   , (FUNDS, CRAFTSMEN)
   , (FUNDS, BRICKS)
   , (SOLDIERS, WEAPONRY_ART)
   , (SOLDIERS, DEFENSE)
   , (WEAPONRY_ART, ELITEARMY)
   , (DEFENSE, ELITEARMY)
   , (RAW_MATERIALS, CASTING)
   , (CRAFTSMEN, CASTING) 
   , (CRAFTSMEN, WALL)
   , (BRICKS, WALL) 
   , (CASTING, WEAPONRY_ART)
   , (WALL, DEFENSE) ];
code = 235681207;                    
   
